--- Job 6_node_final.gms Start 01/12/22 17:07:56 35.1.0 r82a9585 WEX-WEI x86 64bit/MS Windows
--- Applying:
    C:\GAMS\35\gmsprmNT.txt
--- GAMS Parameters defined
    Input "Z:\MitarbeiterOrdner\Bernecker\GitHub Desktop Project Foulder\SARO-Dunkelflaute\ARO_6nodeTest\6_node_final.gms"
    PageSize 0
    ScrDir "Z:\MitarbeiterOrdner\Bernecker\GitHub Desktop Project Foulder\SARO-Dunkelflaute\ARO_6nodeTest\225a\"
    SysDir C:\GAMS\35\
    LogOption 3
    ErrMsg 1
    ErrorLog 99
    IDE 1
    LstTitleLeftAligned 1
Licensee: Small MUD - 5 User License                     S201118/0001AN-WIN
          BTU Cottbus-Senftenberg, FG Energiewirtschaft              DC5591
          C:\Users\Max Bernecker\Documents\GAMS\gamslice.txt
GAMS 35.1.0   Copyright (C) 1987-2021 GAMS Development. All rights reserved
--- Starting compilation
--- 6_node_final.gms(498) 3 Mb
--- . network_expansion_merge.gms(24) 3 Mb
--- 6_node_final.gms(518) 3 Mb
--- . network_expansion_clean.gms(23) 3 Mb
--- 6_node_final.gms(531) 3 Mb
--- Starting execution: elapsed 0:00:00.030
--- 6_node_final.gms(449) 4 Mb
--- Generating MIP model Master_VO
--- 6_node_final.gms(468) 4 Mb
--- LOOPS v = v1
---   2 rows  8 columns  14 non-zeroes
---   6 discrete-columns
--- Executing CPLEX (Solvelink=2): elapsed 0:00:00.058

IBM ILOG CPLEX   35.1.0 r82a9585 Released Apr 29, 2021 WEI x86 64bit/MS Window

--- GAMS/Cplex Link licensed for continuous and discrete problems.
--- GMO memory 0.50 Mb (peak 0.50 Mb)
--- Dictionary memory 0.00 Mb
--- Cplex 20.1.0.1 link memory 0.00 Mb (peak 0.00 Mb)
--- Starting Cplex

Version identifier: 20.1.0.1 | 2021-04-07 | 3a818710c
CPXPARAM_Advance                                 0
CPXPARAM_Simplex_Display                         2
CPXPARAM_Threads                                 1
CPXPARAM_MIP_Display                             4
CPXPARAM_MIP_Tolerances_AbsMIPGap                0
CPXPARAM_MIP_Tolerances_MIPGap                   0
Generic callback                                 0x50
Found incumbent of value 0.000000 after 0.00 sec. (0.00 ticks)

Root node processing (before b&c):
  Real time             =    0.00 sec. (0.00 ticks)
Sequential b&c:
  Real time             =    0.00 sec. (0.00 ticks)
                          ------------
Total (root+branch&cut) =    0.00 sec. (0.00 ticks)

--- MIP status (101): integer optimal solution.
--- Cplex Time: 0.00sec (det. 0.00 ticks)

--- Fixing integer variables and solving final LP...

Version identifier: 20.1.0.1 | 2021-04-07 | 3a818710c
CPXPARAM_Advance                                 2
CPXPARAM_Simplex_Display                         2
CPXPARAM_Threads                                 1
CPXPARAM_MIP_Display                             4
CPXPARAM_MIP_Tolerances_AbsMIPGap                0
CPXPARAM_MIP_Tolerances_MIPGap                   0
Tried aggregator 1 time.
LP Presolve eliminated 1 rows and 8 columns.
All rows and columns eliminated.
Presolve time = 0.00 sec. (0.00 ticks)

--- Fixed MIP status (1): optimal.
--- Cplex Time: 0.00sec (det. 0.00 ticks)


Proven optimal solution
MIP Solution:            0.000000    (0 iterations, 0 nodes)
Final Solve:             0.000000    (0 iterations)

Best possible:           0.000000
Absolute gap:            0.000000
Relative gap:            0.000000

--- Reading solution for model Master_VO
--- Executing after solve: elapsed 0:00:00.125
--- 6_node_final.gms(449) 4 Mb
--- Generating MIP model Subproblem
--- 6_node_final.gms(528) 5 Mb
--- LOOPS v = v1
---   2,123 rows  2,021 columns  6,721 non-zeroes
---   220 discrete-columns
--- Executing CPLEX (Solvelink=2): elapsed 0:00:00.163

IBM ILOG CPLEX   35.1.0 r82a9585 Released Apr 29, 2021 WEI x86 64bit/MS Window

--- GAMS/Cplex Link licensed for continuous and discrete problems.
--- Space for names approximately 0.10 Mb
--- Use option 'names no' to turn use of names off
--- GMO memory 0.97 Mb (peak 0.99 Mb)
--- Dictionary memory 0.00 Mb
--- Cplex 20.1.0.1 link memory 0.06 Mb (peak 0.27 Mb)
--- Starting Cplex

Version identifier: 20.1.0.1 | 2021-04-07 | 3a818710c
CPXPARAM_Advance                                 0
CPXPARAM_Threads                                 1
CPXPARAM_MIP_Display                             4
CPXPARAM_MIP_Tolerances_AbsMIPGap                0
CPXPARAM_MIP_Tolerances_MIPGap                   0
Generic callback                                 0x50
Found incumbent of value 126000.000000 after 0.00 sec. (0.10 ticks)
Tried aggregator 2 times.
MIP Presolve eliminated 960 rows and 1061 columns.
MIP Presolve modified 340 coefficients.
Aggregator did 20 substitutions.
Reduced MIP has 1082 rows, 940 columns, and 3080 nonzeros.
Reduced MIP has 220 binaries, 0 generals, 0 SOSs, and 0 indicators.
Presolve time = 0.00 sec. (4.74 ticks)
Probing fixed 0 vars, tightened 200 bounds.
Probing time = 0.00 sec. (0.17 ticks)
Tried aggregator 1 time.
Detecting symmetries...
Reduced MIP has 1082 rows, 940 columns, and 3080 nonzeros.
Reduced MIP has 220 binaries, 0 generals, 0 SOSs, and 0 indicators.
Presolve time = 0.00 sec. (2.89 ticks)
Probing time = 0.00 sec. (0.12 ticks)
MIP emphasis: balance optimality and feasibility.
MIP search method: dynamic search.
Parallel mode: none, using 1 thread.
Tried aggregator 1 time.
LP Presolve eliminated 181 rows and 40 columns.
Aggregator did 140 substitutions.
Reduced LP has 761 rows, 760 columns, and 2140 nonzeros.
Presolve time = 0.00 sec. (0.72 ticks)
Initializing dual steep norms . . .

Iteration log . . .
Iteration:     1   Dual objective     =      73500000.000000
Iteration:    70   Dual objective     =      52800000.000000
Iteration:   155   Dual objective     =      43204120.000000
Iteration:   270   Dual objective     =      17063800.000000
Perturbation started.
Iteration:   306   Dual objective     =      17063800.000000
Removing perturbation.
Initializing dual steep norms . . .
Root relaxation solution time = 0.00 sec. (3.66 ticks)

        Nodes                                         Cuts/
   Node  Left     Objective  IInf  Best Integer    Best Bound    ItCnt     Gap

*     0+    0                       126000.0000   8.55000e+07              --- 
Found incumbent of value 126000.000000 after 0.00 sec. (12.77 ticks)
      0     0   1.25810e+07    71   126000.0000   1.25810e+07      405     --- 
*     0+    0                      9589350.0000   1.25810e+07            31.20%
Found incumbent of value 9589350.000000 after 0.02 sec. (14.57 ticks)
      0     0  9594563.2500    11  9589350.0000      Cuts: 51      467    0.05%
      0     0        cutoff        9589350.0000                    477     --- 
Elapsed time = 0.02 sec. (29.22 ticks, tree = 0.01 MB, solutions = 1)

Mixed integer rounding cuts applied:  60

Root node processing (before b&c):
  Real time             =    0.02 sec. (29.31 ticks)
Sequential b&c:
  Real time             =    0.00 sec. (0.00 ticks)
                          ------------
Total (root+branch&cut) =    0.02 sec. (29.31 ticks)

--- MIP status (101): integer optimal solution.
--- Cplex Time: 0.02sec (det. 29.31 ticks)

--- Fixing integer variables and solving final LP...

Version identifier: 20.1.0.1 | 2021-04-07 | 3a818710c
CPXPARAM_Advance                                 2
CPXPARAM_Threads                                 1
CPXPARAM_MIP_Display                             4
CPXPARAM_MIP_Tolerances_AbsMIPGap                0
CPXPARAM_MIP_Tolerances_MIPGap                   0
Tried aggregator 1 time.
LP Presolve eliminated 1732 rows and 1431 columns.
Aggregator did 190 substitutions.
Reduced LP has 180 rows, 400 columns, and 620 nonzeros.
Presolve time = 0.00 sec. (1.73 ticks)
Symmetry aggregator did 522 additional substitutions.
Initializing dual steep norms . . .

Iteration log . . .
Iteration:     1   Dual objective     =      58300000.000000

Dual crossover.
  Dual:  Fixed no variables.
  Primal:  Fixed no variables.

--- Fixed MIP status (1): optimal.
--- Cplex Time: 0.00sec (det. 2.73 ticks)


Proven optimal solution
MIP Solution:      9589350.000000    (477 iterations, 0 nodes)
Final Solve:       9589350.000000    (18 iterations)

Best possible:     9589350.000000
Absolute gap:            0.000000
Relative gap:            0.000000

--- Reading solution for model Subproblem
--- Executing after solve: elapsed 0:00:00.287
--- 6_node_final.gms(449) 5 Mb
--- Generating MIP model Master
--- 6_node_final.gms(473) 5 Mb
--- LOOPS v = v2
---   2,524 rows  1,048 columns  6,056 non-zeroes
---   6 discrete-columns
--- Executing CPLEX (Solvelink=2): elapsed 0:00:00.325

IBM ILOG CPLEX   35.1.0 r82a9585 Released Apr 29, 2021 WEI x86 64bit/MS Window

--- GAMS/Cplex Link licensed for continuous and discrete problems.
--- Space for names approximately 0.10 Mb
--- Use option 'names no' to turn use of names off
--- GMO memory 0.90 Mb (peak 0.91 Mb)
--- Dictionary memory 0.00 Mb
--- Cplex 20.1.0.1 link memory 0.05 Mb (peak 0.25 Mb)
--- Starting Cplex

Version identifier: 20.1.0.1 | 2021-04-07 | 3a818710c
CPXPARAM_Advance                                 0
CPXPARAM_Threads                                 1
CPXPARAM_MIP_Display                             4
CPXPARAM_MIP_Tolerances_AbsMIPGap                0
CPXPARAM_MIP_Tolerances_MIPGap                   0
Generic callback                                 0x50
Tried aggregator 2 times.
MIP Presolve eliminated 1200 rows and 121 columns.
MIP Presolve modified 1442 coefficients.
Aggregator did 80 substitutions.
Reduced MIP has 1243 rows, 847 columns, and 4448 nonzeros.
Reduced MIP has 6 binaries, 0 generals, 0 SOSs, and 0 indicators.
Presolve time = 0.00 sec. (4.41 ticks)
Found incumbent of value 1.4345600e+07 after 0.00 sec. (5.79 ticks)
Probing time = 0.00 sec. (0.20 ticks)
Tried aggregator 1 time.
Detecting symmetries...
MIP Presolve eliminated 1147 rows and 777 columns.
Reduced MIP has 96 rows, 70 columns, and 341 nonzeros.
Reduced MIP has 6 binaries, 0 generals, 0 SOSs, and 0 indicators.
Presolve time = 0.00 sec. (3.40 ticks)
Probing time = 0.00 sec. (0.02 ticks)
Clique table members: 2.
MIP emphasis: balance optimality and feasibility.
MIP search method: dynamic search.
Parallel mode: none, using 1 thread.
Initializing dual steep norms . . .

Iteration log . . .
Iteration:     1   Dual objective     =             0.000000
Iteration:    62   Dual objective     =        930816.666667
Root relaxation solution time = 0.00 sec. (0.29 ticks)

        Nodes                                         Cuts/
   Node  Left     Objective  IInf  Best Integer    Best Bound    ItCnt     Gap

*     0+    0                       1.43456e+07        0.0000           100.00%
Found incumbent of value 1.4345600e+07 after 0.02 sec. (10.02 ticks)
      0     0  1031166.6667     3   1.43456e+07  1031166.6667       66   92.81%
*     0+    0                      5889350.0000  1031166.6667            82.49%
Found incumbent of value 5889350.000000 after 0.02 sec. (10.22 ticks)
      0     0  1317389.0426     4  5889350.0000      Cuts: 39       80   77.63%
      0     0  2252509.3328     3  5889350.0000      Cuts: 27       98   61.75%
      0     0  2254654.7500     3  5889350.0000      Cuts: 14      104   61.72%
*     0+    0                      3305209.5000  2254654.7500            31.78%
Found incumbent of value 3305209.500000 after 0.02 sec. (12.26 ticks)
      0     0  2254654.7500     3  3305209.5000    MIRcuts: 2      105   31.78%
*     0+    0                      2835521.7500  2254654.7500            20.49%
Found incumbent of value 2835521.750000 after 0.02 sec. (13.72 ticks)
*     0+    0                      2587409.5000  2254654.7500            12.86%
Found incumbent of value 2587409.500000 after 0.02 sec. (13.94 ticks)
      0     2  2254654.7500     3  2587409.5000  2267231.8696      105   12.37%
Elapsed time = 0.02 sec. (14.25 ticks, tree = 0.01 MB, solutions = 5)
*     2     0      integral     0  2476021.7500  2435462.4412      139    1.64%
Found incumbent of value 2476021.750000 after 0.02 sec. (14.53 ticks)

Flow cuts applied:  2
Mixed integer rounding cuts applied:  26

Root node processing (before b&c):
  Real time             =    0.02 sec. (14.31 ticks)
Sequential b&c:
  Real time             =    0.00 sec. (0.31 ticks)
                          ------------
Total (root+branch&cut) =    0.02 sec. (14.63 ticks)

--- MIP status (101): integer optimal solution.
--- Cplex Time: 0.02sec (det. 14.63 ticks)

--- Fixing integer variables and solving final LP...

Version identifier: 20.1.0.1 | 2021-04-07 | 3a818710c
CPXPARAM_Advance                                 2
CPXPARAM_Threads                                 1
CPXPARAM_MIP_Display                             4
CPXPARAM_MIP_Tolerances_AbsMIPGap                0
CPXPARAM_MIP_Tolerances_MIPGap                   0
Tried aggregator 1 time.
LP Presolve eliminated 2121 rows and 327 columns.
Aggregator did 80 substitutions.
Reduced LP has 322 rows, 641 columns, and 1402 nonzeros.
Presolve time = 0.00 sec. (1.73 ticks)
Symmetry aggregator did 888 additional substitutions.
Initializing dual steep norms . . .

Iteration log . . .
Iteration:     1   Dual objective     =       2100000.000000

Dual crossover.
  Dual:  Fixing 10 variables.
        9 DMoves:  Infeasibility  0.00000000e+00  Objective  2.47602175e+06
        0 DMoves:  Infeasibility  0.00000000e+00  Objective  2.47602175e+06
  Dual:  Pushed 0, exchanged 10.
  Primal:  Fixing 19 variables.
       18 PMoves:  Infeasibility  0.00000000e+00  Objective  2.47602175e+06
        0 PMoves:  Infeasibility  0.00000000e+00  Objective  2.47602175e+06
  Primal:  Pushed 12, exchanged 7.

--- Fixed MIP status (1): optimal.
--- Cplex Time: 0.00sec (det. 3.51 ticks)


Proven optimal solution
MIP Solution:      2476021.750000    (139 iterations, 3 nodes)
Final Solve:       2476021.750000    (32 iterations)

Best possible:     2476021.750000
Absolute gap:            0.000000
Relative gap:            0.000000

--- Reading solution for model Master
--- Executing after solve: elapsed 0:00:00.447
--- 6_node_final.gms(449) 5 Mb
--- Generating MIP model Subproblem
--- 6_node_final.gms(528) 5 Mb
--- LOOPS v = v2
---   2,123 rows  2,021 columns  6,881 non-zeroes
---   220 discrete-columns
--- Executing CPLEX (Solvelink=2): elapsed 0:00:00.494

IBM ILOG CPLEX   35.1.0 r82a9585 Released Apr 29, 2021 WEI x86 64bit/MS Window

--- GAMS/Cplex Link licensed for continuous and discrete problems.
--- Space for names approximately 0.10 Mb
--- Use option 'names no' to turn use of names off
--- GMO memory 0.97 Mb (peak 0.99 Mb)
--- Dictionary memory 0.00 Mb
--- Cplex 20.1.0.1 link memory 0.06 Mb (peak 0.28 Mb)
--- Starting Cplex

Version identifier: 20.1.0.1 | 2021-04-07 | 3a818710c
CPXPARAM_Advance                                 2
CPXPARAM_Threads                                 1
CPXPARAM_MIP_Display                             4
CPXPARAM_MIP_Tolerances_AbsMIPGap                0
CPXPARAM_MIP_Tolerances_MIPGap                   0
Generic callback                                 0x50
Found incumbent of value 0.000000 after 0.00 sec. (0.10 ticks)
Tried aggregator 2 times.
MIP Presolve eliminated 880 rows and 801 columns.
MIP Presolve modified 340 coefficients.
Aggregator did 80 substitutions.
Reduced MIP has 1122 rows, 1140 columns, and 3600 nonzeros.
Reduced MIP has 220 binaries, 0 generals, 0 SOSs, and 0 indicators.
Presolve time = 0.00 sec. (4.79 ticks)
Probing fixed 0 vars, tightened 200 bounds.
Probing time = 0.00 sec. (0.18 ticks)
Tried aggregator 1 time.
Detecting symmetries...
Reduced MIP has 1122 rows, 1140 columns, and 3600 nonzeros.
Reduced MIP has 220 binaries, 0 generals, 0 SOSs, and 0 indicators.
Presolve time = 0.02 sec. (3.39 ticks)
Probing time = 0.00 sec. (0.12 ticks)
MIP emphasis: balance optimality and feasibility.
MIP search method: dynamic search.
Parallel mode: none, using 1 thread.
Tried aggregator 1 time.
LP Presolve eliminated 181 rows and 40 columns.
Aggregator did 140 substitutions.
Reduced LP has 801 rows, 960 columns, and 2660 nonzeros.
Presolve time = 0.00 sec. (0.82 ticks)
Initializing dual steep norms . . .

Iteration log . . .
Iteration:     1   Dual objective     =      73500000.000000
Iteration:    71   Dual objective     =      52800000.000000
Iteration:   159   Dual objective     =      41097970.000000
Iteration:   262   Dual objective     =      13309840.968750
Iteration:   394   Dual objective     =      10341508.468750
Initializing dual steep norms . . .
Root relaxation solution time = 0.00 sec. (3.83 ticks)

        Nodes                                         Cuts/
   Node  Left     Objective  IInf  Best Integer    Best Bound    ItCnt     Gap

*     0+    0                            0.0000   8.55000e+07              --- 
Found incumbent of value 0.000000 after 0.02 sec. (13.65 ticks)
      0     0  6839721.7500    80        0.0000  6839721.7500      446     --- 
*     0+    0                       376021.7500  6839721.7500              --- 
Found incumbent of value 376021.750000 after 0.02 sec. (16.51 ticks)
      0     0   381682.7909    51   376021.7500     Cuts: 120      662    1.51%
*     0+    0                       376196.2375   381682.7909             1.46%
Found incumbent of value 376196.237500 after 0.03 sec. (38.38 ticks)
      0     0   379960.5336    40   376196.2375     Fract: 31      707    1.00%
      0     0   379213.5948    49   376196.2375      Cuts: 22      727    0.80%
*     0+    0                       376264.3000   379213.5948             0.78%
Found incumbent of value 376264.300000 after 0.05 sec. (65.83 ticks)
*     0+    0                       376319.3000   379213.5948             0.77%
Found incumbent of value 376319.300000 after 0.05 sec. (69.27 ticks)
*     0+    0                       376338.6875   379213.5948             0.76%
Found incumbent of value 376338.687500 after 0.05 sec. (76.31 ticks)
      0     2   379213.5948    49   376338.6875   379213.5948      727    0.76%
Elapsed time = 0.05 sec. (77.36 ticks, tree = 0.01 MB, solutions = 5)
*   180+   64                       376393.6875   378782.7399             0.63%
Found incumbent of value 376393.687500 after 0.13 sec. (224.95 ticks)
    295   111   377264.2381    13   376393.6875   378661.8979     2230    0.60%
    767   217   376409.5000    12   376393.6875   378152.4587     4485    0.47%
                                                      Cuts: 9                  
   1282   280   377477.1496    17   376393.6875   377575.8141     6726    0.31%

Mixed integer rounding cuts applied:  95
Gomory fractional cuts applied:  47

Root node processing (before b&c):
  Real time             =    0.05 sec. (77.46 ticks)
Sequential b&c:
  Real time             =    0.44 sec. (922.41 ticks)
                          ------------
Total (root+branch&cut) =    0.48 sec. (999.88 ticks)

--- MIP status (101): integer optimal solution.
--- Cplex Time: 0.48sec (det. 999.88 ticks)

--- Fixing integer variables and solving final LP...

Version identifier: 20.1.0.1 | 2021-04-07 | 3a818710c
CPXPARAM_Advance                                 2
CPXPARAM_Threads                                 1
CPXPARAM_MIP_Display                             4
CPXPARAM_MIP_Tolerances_AbsMIPGap                0
CPXPARAM_MIP_Tolerances_MIPGap                   0
Tried aggregator 1 time.
LP Presolve eliminated 1652 rows and 1171 columns.
Aggregator did 250 substitutions.
Reduced LP has 220 rows, 600 columns, and 1140 nonzeros.
Presolve time = 0.00 sec. (1.81 ticks)
Symmetry aggregator did 738 additional substitutions.
Initializing dual steep norms . . .

Iteration log . . .
Iteration:     1   Dual objective     =      64900000.000000

Dual crossover.
  Dual:  Fixed no variables.
  Primal:  Fixed no variables.

--- Fixed MIP status (1): optimal.
--- Cplex Time: 0.00sec (det. 3.00 ticks)


Proven optimal solution
MIP Solution:       376393.687500    (8233 iterations, 1864 nodes)
Final Solve:        376393.687500    (26 iterations)

Best possible:      376393.687500
Absolute gap:            0.000000
Relative gap:            0.000000

--- Reading solution for model Subproblem
--- Executing after solve: elapsed 0:00:01.087
--- 6_node_final.gms(449) 5 Mb
--- Generating MIP model Master
--- 6_node_final.gms(473) 5 Mb
--- LOOPS v = v3
---   3,785 rows  1,568 columns  9,077 non-zeroes
---   6 discrete-columns
--- Executing CPLEX (Solvelink=2): elapsed 0:00:01.138

IBM ILOG CPLEX   35.1.0 r82a9585 Released Apr 29, 2021 WEI x86 64bit/MS Window

--- GAMS/Cplex Link licensed for continuous and discrete problems.
--- Space for names approximately 0.15 Mb
--- Use option 'names no' to turn use of names off
--- GMO memory 1.10 Mb (peak 1.12 Mb)
--- Dictionary memory 0.00 Mb
--- Cplex 20.1.0.1 link memory 0.07 Mb (peak 0.37 Mb)
--- Starting Cplex

Version identifier: 20.1.0.1 | 2021-04-07 | 3a818710c
CPXPARAM_Advance                                 0
CPXPARAM_Threads                                 1
CPXPARAM_MIP_Display                             4
CPXPARAM_MIP_Tolerances_AbsMIPGap                0
CPXPARAM_MIP_Tolerances_MIPGap                   0
Generic callback                                 0x50
Tried aggregator 2 times.
MIP Presolve eliminated 1800 rows and 181 columns.
MIP Presolve modified 2162 coefficients.
Aggregator did 120 substitutions.
Reduced MIP has 1864 rows, 1267 columns, and 6669 nonzeros.
Reduced MIP has 6 binaries, 0 generals, 0 SOSs, and 0 indicators.
Presolve time = 0.00 sec. (6.49 ticks)
Found incumbent of value 1.4345600e+07 after 0.00 sec. (8.55 ticks)
Probing time = 0.00 sec. (0.31 ticks)
Tried aggregator 1 time.
Detecting symmetries...
MIP Presolve eliminated 1705 rows and 1155 columns.
Reduced MIP has 159 rows, 112 columns, and 564 nonzeros.
Reduced MIP has 6 binaries, 0 generals, 0 SOSs, and 0 indicators.
Presolve time = 0.00 sec. (5.18 ticks)
Probing time = 0.00 sec. (0.03 ticks)
Clique table members: 2.
MIP emphasis: balance optimality and feasibility.
MIP search method: dynamic search.
Parallel mode: none, using 1 thread.
Initializing dual steep norms . . .

Iteration log . . .
Iteration:     1   Dual objective     =             0.000000
Iteration:    62   Dual objective     =        241925.000000
Iteration:   124   Dual objective     =       1066751.017426
Root relaxation solution time = 0.00 sec. (0.73 ticks)

        Nodes                                         Cuts/
   Node  Left     Objective  IInf  Best Integer    Best Bound    ItCnt     Gap

*     0+    0                       1.43456e+07        0.0000           100.00%
Found incumbent of value 1.4345600e+07 after 0.00 sec. (15.28 ticks)
      0     0  1121566.6667     3   1.43456e+07  1121566.6667      125   92.18%
*     0+    0                      5889350.0000  1121566.6667            80.96%
Found incumbent of value 5889350.000000 after 0.02 sec. (15.71 ticks)
      0     0  1527989.6552     3  5889350.0000      Cuts: 53      142   74.06%
      0     0  2236331.6250     3  5889350.0000      Cuts: 36      180   62.03%
      0     0  2250154.7500     3  5889350.0000      Cuts: 36      200   61.79%
      0     0  2250154.7500     3  5889350.0000    MIRcuts: 7      207   61.79%
*     0+    0                      2587409.5000  2250154.7500            13.03%
Found incumbent of value 2587409.500000 after 0.02 sec. (21.30 ticks)
*     0+    0                      2476393.6875  2250154.7500             9.14%
Found incumbent of value 2476393.687500 after 0.02 sec. (22.35 ticks)
      0     1  2250154.7500     3  2476393.6875  2469509.5000      207    0.28%
Elapsed time = 0.02 sec. (22.69 ticks, tree = 0.01 MB, solutions = 4)
*     2     0      integral     0  2476393.6875  2476291.5838      267    0.00%
Found incumbent of value 2476393.687500 after 0.02 sec. (23.24 ticks)

Flow cuts applied:  1
Mixed integer rounding cuts applied:  34

Root node processing (before b&c):
  Real time             =    0.02 sec. (22.77 ticks)
Sequential b&c:
  Real time             =    0.00 sec. (0.55 ticks)
                          ------------
Total (root+branch&cut) =    0.02 sec. (23.32 ticks)

--- MIP status (101): integer optimal solution.
--- Cplex Time: 0.02sec (det. 23.33 ticks)

--- Fixing integer variables and solving final LP...

Version identifier: 20.1.0.1 | 2021-04-07 | 3a818710c
CPXPARAM_Advance                                 2
CPXPARAM_Threads                                 1
CPXPARAM_MIP_Display                             4
CPXPARAM_MIP_Tolerances_AbsMIPGap                0
CPXPARAM_MIP_Tolerances_MIPGap                   0
Tried aggregator 1 time.
LP Presolve eliminated 3181 rows and 487 columns.
Aggregator did 120 substitutions.
Reduced LP has 483 rows, 961 columns, and 2103 nonzeros.
Presolve time = 0.00 sec. (2.62 ticks)
Symmetry aggregator did 1320 additional substitutions.
Initializing dual steep norms . . .

Iteration log . . .
Iteration:     1   Dual objective     =       2100000.000000

Dual crossover.
  Dual:  Fixed no variables.
  Primal:  Fixing 29 variables.
       28 PMoves:  Infeasibility  1.09467990e-13  Objective  2.47639369e+06
        0 PMoves:  Infeasibility  0.00000000e+00  Objective  2.47639369e+06
  Primal:  Pushed 15, exchanged 14.

--- Fixed MIP status (1): optimal.
--- Cplex Time: 0.00sec (det. 5.21 ticks)


Proven optimal solution
MIP Solution:      2476393.687500    (267 iterations, 3 nodes)
Final Solve:       2476393.687500    (53 iterations)

Best possible:     2476393.687500
Absolute gap:            0.000000
Relative gap:            0.000000

--- Reading solution for model Master
--- Executing after solve: elapsed 0:00:01.326
--- 6_node_final.gms(449) 5 Mb
--- Generating MIP model Subproblem
--- 6_node_final.gms(528) 5 Mb
--- LOOPS v = v3
---   2,123 rows  2,021 columns  6,881 non-zeroes
---   220 discrete-columns
--- Executing CPLEX (Solvelink=2): elapsed 0:00:01.371

IBM ILOG CPLEX   35.1.0 r82a9585 Released Apr 29, 2021 WEI x86 64bit/MS Window

--- GAMS/Cplex Link licensed for continuous and discrete problems.
--- Space for names approximately 0.10 Mb
--- Use option 'names no' to turn use of names off
--- GMO memory 0.97 Mb (peak 0.99 Mb)
--- Dictionary memory 0.00 Mb
--- Cplex 20.1.0.1 link memory 0.06 Mb (peak 0.28 Mb)
--- Starting Cplex

Version identifier: 20.1.0.1 | 2021-04-07 | 3a818710c
CPXPARAM_Advance                                 2
CPXPARAM_Threads                                 1
CPXPARAM_MIP_Display                             4
CPXPARAM_MIP_Tolerances_AbsMIPGap                0
CPXPARAM_MIP_Tolerances_MIPGap                   0
Generic callback                                 0x50
Found incumbent of value 0.000000 after 0.00 sec. (0.10 ticks)
Tried aggregator 2 times.
MIP Presolve eliminated 880 rows and 801 columns.
MIP Presolve modified 340 coefficients.
Aggregator did 80 substitutions.
Reduced MIP has 1122 rows, 1140 columns, and 3600 nonzeros.
Reduced MIP has 220 binaries, 0 generals, 0 SOSs, and 0 indicators.
Presolve time = 0.00 sec. (4.79 ticks)
Probing fixed 0 vars, tightened 200 bounds.
Probing time = 0.00 sec. (0.18 ticks)
Tried aggregator 1 time.
Detecting symmetries...
Reduced MIP has 1122 rows, 1140 columns, and 3600 nonzeros.
Reduced MIP has 220 binaries, 0 generals, 0 SOSs, and 0 indicators.
Presolve time = 0.02 sec. (3.39 ticks)
Probing time = 0.00 sec. (0.12 ticks)
MIP emphasis: balance optimality and feasibility.
MIP search method: dynamic search.
Parallel mode: none, using 1 thread.
Tried aggregator 1 time.
LP Presolve eliminated 181 rows and 40 columns.
Aggregator did 140 substitutions.
Reduced LP has 801 rows, 960 columns, and 2660 nonzeros.
Presolve time = 0.00 sec. (0.82 ticks)
Initializing dual steep norms . . .

Iteration log . . .
Iteration:     1   Dual objective     =      73500000.000000
Iteration:    71   Dual objective     =      52800000.000000
Iteration:   159   Dual objective     =      41097970.000000
Iteration:   262   Dual objective     =      13309840.968750
Iteration:   394   Dual objective     =      10341508.468750
Initializing dual steep norms . . .
Root relaxation solution time = 0.00 sec. (3.83 ticks)

        Nodes                                         Cuts/
   Node  Left     Objective  IInf  Best Integer    Best Bound    ItCnt     Gap

*     0+    0                            0.0000   8.55000e+07              --- 
Found incumbent of value 0.000000 after 0.02 sec. (13.65 ticks)
      0     0  6839721.7500    80        0.0000  6839721.7500      446     --- 
*     0+    0                       376021.7500  6839721.7500              --- 
Found incumbent of value 376021.750000 after 0.02 sec. (16.51 ticks)
      0     0   381682.7909    51   376021.7500     Cuts: 120      662    1.51%
*     0+    0                       376196.2375   381682.7909             1.46%
Found incumbent of value 376196.237500 after 0.03 sec. (38.38 ticks)
      0     0   379960.5336    40   376196.2375     Fract: 31      707    1.00%
      0     0   379213.5948    49   376196.2375      Cuts: 22      727    0.80%
*     0+    0                       376264.3000   379213.5948             0.78%
Found incumbent of value 376264.300000 after 0.05 sec. (65.83 ticks)
*     0+    0                       376319.3000   379213.5948             0.77%
Found incumbent of value 376319.300000 after 0.05 sec. (69.27 ticks)
*     0+    0                       376338.6875   379213.5948             0.76%
Found incumbent of value 376338.687500 after 0.05 sec. (76.31 ticks)
      0     2   379213.5948    49   376338.6875   379213.5948      727    0.76%
Elapsed time = 0.05 sec. (77.36 ticks, tree = 0.01 MB, solutions = 5)
*   180+   64                       376393.6875   378782.7399             0.63%
Found incumbent of value 376393.687500 after 0.13 sec. (224.95 ticks)
    295   111   377264.2381    13   376393.6875   378661.8979     2230    0.60%
    767   217   376409.5000    12   376393.6875   378152.4587     4485    0.47%
                                                      Cuts: 9                  
   1282   280   377477.1496    17   376393.6875   377575.8141     6726    0.31%

Mixed integer rounding cuts applied:  95
Gomory fractional cuts applied:  47

Root node processing (before b&c):
  Real time             =    0.05 sec. (77.46 ticks)
Sequential b&c:
  Real time             =    0.44 sec. (922.41 ticks)
                          ------------
Total (root+branch&cut) =    0.48 sec. (999.88 ticks)

--- MIP status (101): integer optimal solution.
--- Cplex Time: 0.48sec (det. 999.88 ticks)

--- Fixing integer variables and solving final LP...

Version identifier: 20.1.0.1 | 2021-04-07 | 3a818710c
CPXPARAM_Advance                                 2
CPXPARAM_Threads                                 1
CPXPARAM_MIP_Display                             4
CPXPARAM_MIP_Tolerances_AbsMIPGap                0
CPXPARAM_MIP_Tolerances_MIPGap                   0
Tried aggregator 1 time.
LP Presolve eliminated 1652 rows and 1171 columns.
Aggregator did 250 substitutions.
Reduced LP has 220 rows, 600 columns, and 1140 nonzeros.
Presolve time = 0.00 sec. (1.81 ticks)
Symmetry aggregator did 738 additional substitutions.
Initializing dual steep norms . . .

Iteration log . . .
Iteration:     1   Dual objective     =      64900000.000000

Dual crossover.
  Dual:  Fixed no variables.
  Primal:  Fixed no variables.

--- Fixed MIP status (1): optimal.
--- Cplex Time: 0.00sec (det. 3.00 ticks)


Proven optimal solution
MIP Solution:       376393.687500    (8233 iterations, 1864 nodes)
Final Solve:        376393.687500    (26 iterations)

Best possible:      376393.687500
Absolute gap:            0.000000
Relative gap:            0.000000

--- Reading solution for model Subproblem
--- Executing after solve: elapsed 0:00:01.961
--- 6_node_final.gms(577) 5 Mb
--- GDX File (execute_unload) Z:\MitarbeiterOrdner\Bernecker\GitHub Desktop Project Foulder\SARO-Dunkelflaute\ARO_6nodeTest\check_ARO_toy_complete.gdx
*** Status: Normal completion
--- Job 6_node_final.gms Stop 01/12/22 17:07:58 elapsed 0:00:02.006
